QBPP_HJ+_35_025_20_1
35 93 1879
36 31 45 17 6 22 47 19 2 32 28 42 23 9 30 16 27 40 35 5 22 48 24 31 28 3 41 7 45 48 26 5 36 28 26
    0    0    0    0    0    0    0   21    0    0    0    0    0    0   77   25    0    0    0   62    0    0    0   51    0    0    0    0   27    0    0    0    0    0    0
    0    0   63    0    0    0    0    0    0    0   14    0    0    0    0    0    0    0    0    0    0    0    0    0    0   79    0    0    0    0    0    0    0    0    3
    0   63    0   88   84    0    0    0    0    0    0    0    0    0   98   79    0    0   72    0    0    0   54    0    0   95    0    0    0    0    0    0    0    0    0
    0    0   88    0    0    0   79   82    0   17    0    0   87    0    0   29   67   73    0    0    0   27    4    0   29   53    0  100   16    0    0    0    0    0    0
    0    0   84    0    0    0    0    0    0    0    0    0   34    0    0    0    0    0    0    0    0    0    0    0    0    0   57    0    0    0   57    0   28    0   14
    0    0    0    0    0    0   86   63    0    0    0    0    0   94    0    0    0    0    0    0   62    0    0    0   92    0    0    0    0    0    0   36    0    0    0
    0    0    0   79    0   86    0    0    0    0    0    0    0   29    3    0    0    0    0    0    0    0    0   86    0    0    0    0    0    0   54    0   29   93    0
   21    0    0   82    0   63    0    0    0    0    0    0    0    0   43    0    0    0   58    0    0   54  100    0    0    0    0    0   77    0    0    0    0    0    0
    0    0    0    0    0    0    0    0    0    0    0    0    0    0    0    0    0  100   88    0    0    0   60    0    0    0    0    0    0   61    0    0    0    0    0
    0    0    0   17    0    0    0    0    0    0    0   77    2    0   82    0    0    0    0    0   38    0   44    0    0    0    0    0    4   78   21    0    0    0    0
    0   14    0    0    0    0    0    0    0    0    0    0   42   53    0    0    0    0    0    0    0    0    0    0    0    0    0    0   28    0    0    0    0    0    0
    0    0    0    0    0    0    0    0    0   77    0    0   21   17    0    0    0    0    0    0    0    0    0    0    0  100    0    0   90    0    0    0    0    0    0
    0    0    0   87   34    0    0    0    0    2   42   21    0    7   15    0    0   56    0    0   63    0   42   57    0   17    0    0    0   97    0    0   53   16    0
    0    0    0    0    0   94   29    0    0    0   53   17    7    0    0    0    0    6    0    0   85    0    0   40   86   12    0    0    0    0    0    0    0    0    0
   77    0   98    0    0    0    3   43    0   82    0    0   15    0    0    0    0    0    0   36   76    0    0   21    0    0   31    0   33   67    0    0    0    0    0
   25    0   79   29    0    0    0    0    0    0    0    0    0    0    0    0    0    0   36    0    0   90   23    0    0   24    0    0    0   32    0    0   87    0   18
    0    0    0   67    0    0    0    0    0    0    0    0    0    0    0    0    0    0    0    0    0    0    0    0    0    0    0    0    0   52    0    0    0    0    0
    0    0    0   73    0    0    0    0  100    0    0    0   56    6    0    0    0    0    0   24    0   80    0    0   86    0    0    5    0   90    0   88    0    0    0
    0    0   72    0    0    0    0   58   88    0    0    0    0    0    0   36    0    0    0    0    0    0   32    0    0    0    0    0   88    0    0   48   48    0   44
   62    0    0    0    0    0    0    0    0    0    0    0    0    0   36    0    0   24    0    0    8    0    0    0   33    0   28    0    0    0   42   90    0    0    0
    0    0    0    0    0   62    0    0    0   38    0    0   63   85   76    0    0    0    0    8    0    0    0    0    0    0    0    0   17    0    0    0    0    0    0
    0    0    0   27    0    0    0   54    0    0    0    0    0    0    0   90    0   80    0    0    0    0   92   57    0    0    6    0    0    0    0   44    0    0    0
    0    0   54    4    0    0    0  100   60   44    0    0   42    0    0   23    0    0   32    0    0   92    0   75   11    0   46    0   53   67    0    0    0    0    0
   51    0    0    0    0    0   86    0    0    0    0    0   57   40   21    0    0    0    0    0    0   57   75    0    0    0   25    0    0    0    0    0   35    0   99
    0    0    0   29    0   92    0    0    0    0    0    0    0   86    0    0    0   86    0   33    0    0   11    0    0   78    0    0   34    0    0    0    0    0   46
    0   79   95   53    0    0    0    0    0    0    0  100   17   12    0   24    0    0    0    0    0    0    0    0   78    0    0    0    0    0    0    0    0    0    0
    0    0    0    0   57    0    0    0    0    0    0    0    0    0   31    0    0    0    0   28    0    6   46   25    0    0    0    0    0    0   53    0    0   85    0
    0    0    0  100    0    0    0    0    0    0    0    0    0    0    0    0    0    5    0    0    0    0    0    0    0    0    0    0    0    0    0   89   62    0    0
   27    0    0   16    0    0    0   77    0    4   28   90    0    0   33    0    0    0   88    0   17    0   53    0   34    0    0    0    0    0   55   59    0    0    0
    0    0    0    0    0    0    0    0   61   78    0    0   97    0   67   32   52   90    0    0    0    0   67    0    0    0    0    0    0    0    0    0    0    0   77
    0    0    0    0   57    0   54    0    0   21    0    0    0    0    0    0    0    0    0   42    0    0    0    0    0    0   53    0   55    0    0    0    0    0    0
    0    0    0    0    0   36    0    0    0    0    0    0    0    0    0    0    0   88   48   90    0   44    0    0    0    0    0   89   59    0    0    0    0    0   25
    0    0    0    0   28    0   29    0    0    0    0    0   53    0    0   87    0    0   48    0    0    0    0   35    0    0    0   62    0    0    0    0    0   86    0
    0    0    0    0    0    0   93    0    0    0    0    0   16    0    0    0    0    0    0    0    0    0    0    0    0    0   85    0    0    0    0    0   86    0    0
    0    3    0    0   14    0    0    0    0    0    0    0    0    0    0   18    0    0   44    0    0    0    0   99   46    0    0    0    0   77    0   25    0    0    0
